StudentsNr = 10;
InstructorsNr = 51;
DaysNr = 1;
SlotsPerDay = 10;
AvailabilitySlotsLenght = 5;
RoomNr = 2;
ProgrammNr = 2;
DegreeNr = 3;
RolesNr = 0;
CoursesNr = 3;
InstructorsProgramm = [{1}, {2}, {1, 2}, {2}, {1, 2}, {1}, {1}, {2}, {1, 2}, {1}, {2}, {1}, {2}, {2}, {2}, {1}, {1, 2}, {1}, {1, 2}, {1, 2}, {1, 2}, {2}, {1}, {1}, {1}, {2}, {1}, {2}, {1}, {1, 2}, {1}, {2}, {1}, {2}, {1, 2}, {1}, {1, 2}, {1, 2}, {2}, {2}, {1}, {2}, {1}, {1}, {2}, {1, 2}, {2}, {1}, {1, 2}, {1}, {1}];
InstructorRolesPerProgramm = array2d(1..ProgrammNr,{},[]);
InstructorsAvailability = [|0, 1, |1, 1, |1, 1, |1, 0, |1, 1, |0, 1, |1, 0, |0, 1, |1, 1, |1, 1, |0, 1, |1, 1, |1, 1, |1, 0, |1, 1, |1, 0, |1, 1, |1, 0, |1, 1, |1, 0, |1, 0, |1, 1, |1, 1, |1, 1, |0, 0, |0, 1, |1, 1, |0, 0, |1, 1, |0, 0, |0, 1, |0, 0, |0, 1, |0, 1, |0, 0, |1, 1, |0, 1, |0, 1, |0, 0, |0, 0, |1, 1, |1, 1, |1, 1, |0, 1, |1, 1, |1, 1, |1, 1, |0, 0, |1, 1, |0, 1, |0, 1|];
StudentsProgramm = [1, 1, 2, 1, 2, 2, 2, 2, 2, 1];
StudentsDegree = [2, 3, 3, 2, 3, 3, 1, 3, 3, 3];
StudentsSupervisorId = [20, 50, 5, 33, 42, 8, 46, 17, 19, 19];
StudentsCourseIds = [{2}, {1, 2, 3}, {1, 2, 3}, {1}, {1, 2, 3}, {1, 2, 3}, {1}, {1, 2, 3}, {1, 2, 3}, {1, 2, 3}];
StudentsAvailability = [|0, 0, |0, 1, |0, 1, |0, 1, |0, 1, |1, 1, |0, 1, |1, 1, |1, 1, |0, 0|];
TheoryticalMinCard = [1, 3, 3, 2, 4, 3, 2, 3, 3, 3];
CoursesInstructorIds = [{1, 3, 5, 7, 14, 17, 24, 26, 27, 28, 29, 32, 35, 36, 38, 40, 41, 43, 44}, {1, 7, 10, 11, 12, 16, 17, 18, 19, 20, 21, 22, 23, 26, 31, 32, 34, 35, 38, 40, 45, 49, 51}, {3, 4, 7, 8, 9, 12, 13, 15, 16, 20, 22, 26, 27, 29, 32, 35, 37, 43, 44, 49, 50}];
RolesDemands = [];
RolesContinuity = [];
ExamLen = [2, 1, 1, 2, 1, 1, 2, 1, 1, 1];
LunchTsMinLen = 1;
LunchStarts = [4..6];
SupervisorAvailable = 0;
OptimalLunchLenght = [3, 1];
OptimalStartTs = [0, 0];
OptimalFinishTs = [0, 10];
MinimizeRooms = 0;
RolesSoftContinuity = array2d(1..2,{},[]);
SameDegreeInRoom = 10;
Mergeability = 2;
